34 500
3 186
4 106
5 147
11 103
2 172
4 187
2 146
8 169
3 173
8 103
10 196
8 139
3 169
2 147
10 197
9 186
8 110
10 196
8 139
6 192
10 187
7 128
11 106
4 182
8 196
5 146
7 172
11 196
7 128
7 192
7 173
4 197
9 182
5 110
